c Grafo no formato DIMACS 
p edge 50 119 
e 1 45 
e 1 43 
e 1 34 
e 1 27 
e 1 21 
e 1 17 
e 1 13 
e 1 9 
e 1 8 
e 2 39 
e 2 36 
e 2 21 
e 2 16 
e 2 6 
e 3 46 
e 3 45 
e 3 31 
e 3 16 
e 3 15 
e 3 4 
e 4 10 
e 5 50 
e 5 37 
e 5 33 
e 5 10 
e 5 8 
e 6 43 
e 6 17 
e 6 16 
e 6 11 
e 6 8 
e 7 38 
e 7 12 
e 8 33 
e 8 30 
e 8 26 
e 8 25 
e 8 21 
e 8 13 
e 8 12 
e 9 18 
e 9 15 
e 10 48 
e 10 40 
e 11 45 
e 11 24 
e 11 14 
e 12 48 
e 12 46 
e 12 34 
e 12 29 
e 13 38 
e 13 33 
e 13 21 
e 13 15 
e 14 45 
e 14 35 
e 14 32 
e 14 27 
e 14 15 
e 15 47 
e 15 45 
e 15 34 
e 15 30 
e 15 19 
e 16 49 
e 16 48 
e 16 30 
e 17 46 
e 17 28 
e 17 20 
e 17 18 
e 19 46 
e 19 44 
e 19 42 
e 20 49 
e 20 30 
e 21 50 
e 21 48 
e 21 28 
e 21 27 
e 22 33 
e 23 47 
e 24 46 
e 24 45 
e 24 44 
e 24 40 
e 24 26 
e 25 49 
e 25 43 
e 25 39 
e 25 34 
e 26 37 
e 26 32 
e 28 47 
e 28 34 
e 29 41 
e 29 30 
e 30 50 
e 30 49 
e 30 46 
e 30 41 
e 30 37 
e 31 32 
e 34 48 
e 34 44 
e 34 41 
e 34 39 
e 34 36 
e 36 47 
e 36 46 
e 36 42 
e 38 48 
e 39 42 
e 41 42 
e 43 48 
e 44 46 
e 46 49 
e 47 50 
